(declare-rel state (Bool Bool Bool Bool Bool Bool Bool Bool Bool Bool Int Int Bool Int))
(declare-var |_OK_| Bool)
(declare-var |_OK_.next| Bool)
(declare-var |a| Bool)
(declare-var |a.next| Bool)
(declare-var |b| Bool)
(declare-var |b.next| Bool)
(declare-var |call_bool6.a| Bool)
(declare-var |call_bool6.a.next| Bool)
(declare-var |call_bool6.b| Bool)
(declare-var |call_bool6.b.next| Bool)
(declare-var |call_bool6.c| Bool)
(declare-var |call_bool6.c.next| Bool)
(declare-var |call_bool6.flby| Bool)
(declare-var |call_bool6.flby.next| Bool)
(declare-var |call_bool6.flby2| Bool)
(declare-var |call_bool6.flby2.next| Bool)
(declare-var |call_bool6.flby3| Bool)
(declare-var |call_bool6.flby3.next| Bool)
(declare-var |call_bool6.out| Bool)
(declare-var |call_bool6.out.next| Bool)
(declare-var |call_int6I.flby| Int)
(declare-var |call_int6I.flby.next| Int)
(declare-var |call_int6I.ite| Int)
(declare-var |call_int6I.ite.next| Int)
(declare-var |call_int6I.out| Bool)
(declare-var |call_int6I.out.next| Bool)
(declare-var |call_int6I.time| Int)
(declare-var |call_int6I.time.next| Int)

(define-fun .init () Bool
(let ((.def_40 (= b a)))
(let ((.def_42 (= .def_40 _OK_)))
(let ((.def_39 (= call_int6I.out a)))
(let ((.def_43 (and .def_39 .def_42)))
(let ((.def_37 (= call_bool6.out b)))
(let ((.def_44 (and .def_37 .def_43)))
(let ((.def_33 (= call_int6I.time 5)))
(let ((.def_35 (= .def_33 call_int6I.out)))
(let ((.def_45 (and .def_35 .def_44)))
(let ((.def_31 (= call_int6I.flby call_int6I.time)))
(let ((.def_46 (and .def_31 .def_45)))
(let ((.def_27 (and call_bool6.c call_bool6.a)))
(let ((.def_29 (= .def_27 call_bool6.out)))
(let ((.def_47 (and .def_29 .def_46)))
(let ((.def_26 (= call_bool6.flby call_bool6.a)))
(let ((.def_48 (and .def_26 .def_47)))
(let ((.def_24 (= call_bool6.flby2 call_bool6.b)))
(let ((.def_49 (and .def_24 .def_48)))
(let ((.def_22 (= call_bool6.flby3 call_bool6.c)))
(let ((.def_50 (and .def_22 .def_49)))
(let ((.def_17 (= call_int6I.flby 0)))
(let ((.def_14 (not call_bool6.flby)))
(let ((.def_18 (and .def_14 .def_17)))
(let ((.def_12 (not call_bool6.flby2)))
(let ((.def_19 (and .def_12 .def_18)))
(let ((.def_10 (not call_bool6.flby3)))
(let ((.def_20 (and .def_10 .def_19)))
(let ((.def_51 (and .def_20 .def_50)))
.def_51)))))))))))))))))))))))))))))

(define-fun .trans () Bool
(let ((.def_106 (* (- 1) call_int6I.ite.next)))
(let ((.def_107 (+ call_int6I.time .def_106)))
(let ((.def_108 (= .def_107 1)))
(let ((.def_33 (= call_int6I.time 5)))
(let ((.def_109 (or .def_33 .def_108)))
(let ((.def_103 (= call_int6I.ite.next 1)))
(let ((.def_101 (not .def_33)))
(let ((.def_104 (or .def_101 .def_103)))
(let ((.def_110 (and .def_104 .def_109)))
(let ((.def_100 (= call_int6I.flby.next call_int6I.ite.next)))
(let ((.def_111 (and .def_100 .def_110)))
(let ((.def_86 (not call_bool6.a)))
(let ((.def_98 (= call_bool6.flby.next .def_86)))
(let ((.def_112 (and .def_98 .def_111)))
(let ((.def_93 (not call_bool6.c)))
(let ((.def_92 (not call_bool6.b)))
(let ((.def_94 (and .def_92 .def_93)))
(let ((.def_95 (and call_bool6.a .def_94)))
(let ((.def_91 (and call_bool6.b .def_86)))
(let ((.def_96 (or .def_91 .def_95)))
(let ((.def_97 (= call_bool6.flby2.next .def_96)))
(let ((.def_113 (and .def_97 .def_112)))
(let ((.def_88 (and call_bool6.b call_bool6.a)))
(let ((.def_87 (and call_bool6.c .def_86)))
(let ((.def_89 (and .def_87 .def_88)))
(let ((.def_90 (= call_bool6.flby3.next .def_89)))
(let ((.def_114 (and .def_90 .def_113)))
(let ((.def_74 (= b.next a.next)))
(let ((.def_76 (= .def_74 _OK_.next)))
(let ((.def_73 (= call_int6I.out.next a.next)))
(let ((.def_77 (and .def_73 .def_76)))
(let ((.def_71 (= call_bool6.out.next b.next)))
(let ((.def_78 (and .def_71 .def_77)))
(let ((.def_67 (= call_int6I.time.next 5)))
(let ((.def_69 (= .def_67 call_int6I.out.next)))
(let ((.def_79 (and .def_69 .def_78)))
(let ((.def_66 (= call_int6I.flby.next call_int6I.time.next)))
(let ((.def_80 (and .def_66 .def_79)))
(let ((.def_61 (and call_bool6.c.next call_bool6.a.next)))
(let ((.def_63 (= .def_61 call_bool6.out.next)))
(let ((.def_81 (and .def_63 .def_80)))
(let ((.def_60 (= call_bool6.flby.next call_bool6.a.next)))
(let ((.def_82 (and .def_60 .def_81)))
(let ((.def_57 (= call_bool6.flby2.next call_bool6.b.next)))
(let ((.def_83 (and .def_57 .def_82)))
(let ((.def_54 (= call_bool6.flby3.next call_bool6.c.next)))
(let ((.def_84 (and .def_54 .def_83)))
(let ((.def_40 (= b a)))
(let ((.def_42 (= .def_40 _OK_)))
(let ((.def_39 (= call_int6I.out a)))
(let ((.def_43 (and .def_39 .def_42)))
(let ((.def_37 (= call_bool6.out b)))
(let ((.def_44 (and .def_37 .def_43)))
(let ((.def_35 (= .def_33 call_int6I.out)))
(let ((.def_45 (and .def_35 .def_44)))
(let ((.def_31 (= call_int6I.flby call_int6I.time)))
(let ((.def_46 (and .def_31 .def_45)))
(let ((.def_27 (and call_bool6.c call_bool6.a)))
(let ((.def_29 (= .def_27 call_bool6.out)))
(let ((.def_47 (and .def_29 .def_46)))
(let ((.def_26 (= call_bool6.flby call_bool6.a)))
(let ((.def_48 (and .def_26 .def_47)))
(let ((.def_24 (= call_bool6.flby2 call_bool6.b)))
(let ((.def_49 (and .def_24 .def_48)))
(let ((.def_22 (= call_bool6.flby3 call_bool6.c)))
(let ((.def_50 (and .def_22 .def_49)))
(let ((.def_85 (and .def_50 .def_84)))
(let ((.def_115 (and .def_85 .def_114)))
.def_115)))))))))))))))))))))))))))))))))))))))))))))))))))))))))))))))))))))

(define-fun .property () Bool
_OK_)

(rule (=> .init (state |_OK_| |a| |b| |call_bool6.a| |call_bool6.b| |call_bool6.c| |call_bool6.flby| |call_bool6.flby2| |call_bool6.flby3| |call_bool6.out| |call_int6I.flby| |call_int6I.ite| |call_int6I.out| |call_int6I.time|)))
(rule (=> (and (state |_OK_| |a| |b| |call_bool6.a| |call_bool6.b| |call_bool6.c| |call_bool6.flby| |call_bool6.flby2| |call_bool6.flby3| |call_bool6.out| |call_int6I.flby| |call_int6I.ite| |call_int6I.out| |call_int6I.time|) .trans) (state |_OK_.next| |a.next| |b.next| |call_bool6.a.next| |call_bool6.b.next| |call_bool6.c.next| |call_bool6.flby.next| |call_bool6.flby2.next| |call_bool6.flby3.next| |call_bool6.out.next| |call_int6I.flby.next| |call_int6I.ite.next| |call_int6I.out.next| |call_int6I.time.next|)))
(query (and (state |_OK_| |a| |b| |call_bool6.a| |call_bool6.b| |call_bool6.c| |call_bool6.flby| |call_bool6.flby2| |call_bool6.flby3| |call_bool6.out| |call_int6I.flby| |call_int6I.ite| |call_int6I.out| |call_int6I.time|) (not .property)))
